;  time  = 600
;  terms = 99
;  score = 0.5520361990950227
(set-logic QF_FP)
(declare-const x0 (_ FloatingPoint 8 24))
(declare-const x1 (_ FloatingPoint 8 24))
(declare-const x2 (_ FloatingPoint 8 24))
(declare-const x3 (_ FloatingPoint 8 24))
(declare-const x4 (_ FloatingPoint 8 24))
(declare-const x5 (_ FloatingPoint 8 24))
(declare-const x6 (_ FloatingPoint 8 24))
(declare-const x7 (_ FloatingPoint 8 24))
(declare-const x8 (_ FloatingPoint 8 24))
(declare-const x9 (_ FloatingPoint 8 24))
(declare-const x10 (_ FloatingPoint 8 24))
(declare-const x11 (_ FloatingPoint 8 24))
(declare-const x12 (_ FloatingPoint 8 24))
(declare-const x13 (_ FloatingPoint 8 24))
(declare-const x14 (_ FloatingPoint 8 24))
(assert (fp.isSubnormal (fp.sub RNE (fp.abs (fp.neg (fp.neg (fp.add RNE (fp.mul RNE (fp.mul RNE (fp.abs (fp.abs x3)) x10) (fp.add RNE (fp.abs (fp.abs x3)) (fp.mul RNE (fp.add RNE x8 x10) (fp.sub RNE x14 x4)))) (fp.add RNE (fp.sub RNE (fp.sub RNE (fp.mul RNE x11 x5) (fp.add RNE x3 x4)) (fp.abs (fp.mul RNE x7 x12))) x13))))) (fp.add RNE (fp.sub RNE (fp.sub RNE (fp.add RNE (fp.mul RNE (fp.sub RNE x3 (fp.neg (fp.neg x6))) x5) (fp.abs x4)) (fp.mul RNE x8 (fp.mul RNE x14 (fp.neg (fp.sub RNE (fp.mul RNE x1 x14) (fp.add RNE x2 x11)))))) (fp.add RNE (fp.add RNE (fp.sub RNE (fp.sub RNE (fp.abs x4) (fp.abs x5)) (fp.sub RNE (fp.mul RNE x11 (fp.neg x11)) (fp.neg (fp.sub RNE x9 x12)))) (fp.sub RNE (fp.neg (fp.abs x4)) (fp.mul RNE (fp.mul RNE x5 (fp.add RNE x12 x3)) (fp.sub RNE (fp.add RNE x2 x7) (fp.mul RNE x14 x1))))) (fp.abs x7))) x14))))
(check-sat)